NAME : bays29_solution.tour
TYPE : TOUR
DIMENSION : 30
COMMENT : Tour length: 2295.0
COMMENT : Time elapsed: 24.11 [s]
TOUR_SECTION
0
20
1
19
17
16
13
21
10
24
6
22
15
18
14
3
9
12
4
25
2
28
8
11
5
27
7
26
23
0
-1
EOF
